NAME : ftv160.3058.tour
COMMENT : Cost = 630_3058
COMMENT : Found by LKH [Keld Helsgaun] Tue Nov  7 23:45:06 2017
TYPE : TOUR
DIMENSION : 165
TOUR_SECTION
1
113
128
127
126
147
146
145
144
143
153
152
161
151
150
149
148
138
136
139
140
141
142
8
9
10
3
164
112
111
109
94
93
92
155
91
90
89
154
88
71
67
64
66
65
57
58
63
62
69
68
70
86
87
84
85
72
162
110
108
107
106
99
96
95
97
98
100
101
102
124
123
122
121
103
104
105
115
114
116
117
118
119
120
125
130
137
129
131
132
133
165
11
77
75
76
12
13
14
19
20
21
33
159
37
158
34
156
42
43
45
46
47
48
49
52
53
54
44
56
55
59
60
61
51
50
74
78
2
163
4
5
6
134
135
7
15
16
160
17
18
22
30
23
24
25
26
27
28
29
31
32
35
36
157
41
40
39
38
73
79
83
80
81
82
-1
EOF
